SAT
-84 50 98 63 -3 97 21 47 -93 -30 -24 -37 -25 40 -23 86 70 69 -43 4 -11 -51 -29 -54 8 18 78 -33 -95 -85 -66 -100 -38 53 90 -13 73 -17 49 89 -75 -5 -77 -41 -94 -80 -58 -39 99 -55 -82 76 74 79 15 -62 -72 42 27 -32 -1 -87 -6 -67 60 -81 -96 31 -34 -61 -26 45 22 88 -44 -14 -16 64 2 -91 92 -56 12 -20 52 -57 9 65 -28 -59 -19 -46 -10 71 7 -35 48 -83 68 -36 0
